POSCAR file written by OVITO Basic 3.9.2
1
26.789789 0.0 0.0
15.67905653 23.15348848 0.0
14.61520139 8.36542282 21.05628241
Ge Te 
216 216 
Cartesian
15.43589861 22.69299821 -0.10131208
19.92689865 22.6878984 -0.00233619
24.32949811 22.62369823 0.01324651
43.40949675 30.98939769 20.91759844
47.88169624 30.95499768 20.86589833
37.67819697 22.55759816 -0.0638338
16.98949862 11.68559914 20.94109831
6.74000954 3.27931975 -0.04834754
25.85459794 11.70839918 20.91689832
15.80009884 3.37108974 -0.01855079
34.72579725 11.64179919 20.91949835
24.631398 3.28703971 -0.00596166
31.6478976 7.15167958 -0.03697715
24.04719804 15.5499987 20.91609839
13.91149905 7.13665952 -0.01048055
18.31079862 7.17826952 0.01272473
22.81729829 7.17415937 -0.08325148
27.36289788 7.25219941 -0.02250622
34.31229735 11.05099915 -0.00433549
11.99649893 11.07159914 -0.00580795
16.54449894 10.83409927 0.13899209
20.94499842 11.20579922 0.02601672
25.40209797 11.05989916 -0.09612908
29.7669977 10.98509913 -0.06794293
10.2894992 14.82339887 -0.0477268
14.52039899 14.89909878 -0.09012215
33.76239744 23.24869827 20.84219843
23.47609826 14.86109895 -0.04716628
42.56319685 23.23649825 20.7581984
32.44919755 14.829399 -0.04305483
12.766699 18.69839851 -0.05332293
17.32619874 18.77819853 -0.0982345
21.65299819 18.75629848 -0.09782622
26.21469808 18.80409862 -0.0180187
45.11699646 27.02269796 20.93429839
34.99639734 18.85429864 -0.06007378
44.63849658 24.11399822 3.51771975
22.30759839 23.91319809 3.5787198
26.77629803 24.04269813 3.37805976
31.24919779 23.95149821 3.33778983
35.77029711 24.00929815 3.45586967
40.14939694 23.89629817 3.32683972
31.52779757 4.7259096 3.50494975
9.1623092 4.73184971 3.37383966
13.6342989 4.76215965 3.40828984
18.2716986 4.54452956 3.53112966
22.70269829 4.73276958 3.33071977
27.02579805 4.73529976 3.48279981
34.13349739 8.52841933 3.47016983
11.85349931 8.59427948 3.41902981
16.3102987 8.48009942 3.49051967
20.82539858 8.53170946 3.45998975
25.1740981 8.70926941 3.42708973
29.76279767 8.6070393 3.57670977
36.75939721 12.50459901 3.37298983
14.50429886 12.30209912 3.46708972
18.86299873 12.54489914 3.39673984
23.4466983 12.44989913 3.43812975
27.72419774 12.47529893 3.39721971
32.28729745 12.280399 3.42033972
12.63089906 16.20549881 3.42257969
17.00519875 16.2188988 3.38346975
21.61359842 16.26909872 3.52665983
25.91139809 16.23669867 3.28093977
30.4630975 16.12399867 3.49466965
35.0031974 16.28029878 3.32008971
15.21139876 20.03439847 3.43456976
19.69909845 20.10329857 3.22135976
24.32399833 20.04889853 3.44895984
28.61289794 20.11929859 3.4985598
33.09039759 20.15769857 3.39539982
37.53449699 20.09339844 3.38908967
20.3065985 25.34949797 6.94722948
9.07133938 2.32551976 6.75766947
29.18969763 25.39149793 6.86467939
33.73169749 25.386698 6.95969943
38.22109699 25.36409803 6.84934957
42.58419658 25.38709792 6.92661938
7.25863945 6.14464961 7.03553952
11.57909893 6.07266941 6.99843941
16.15839866 6.08284945 6.78822951
20.58599854 6.01382949 6.90958949
25.12849803 6.14463949 6.82663953
29.55389755 6.05311946 7.12811936
36.55199714 9.88535922 6.98322941
14.12009888 9.98846921 6.91785955
18.84179864 10.07639932 7.01726941
23.27879835 9.88313926 6.90405947
27.69399779 9.99923918 6.99253944
32.14919752 9.98862933 6.97062954
12.39969911 13.79579898 6.94393944
16.87139862 13.70939897 6.90794941
21.22829835 13.81569893 6.91340952
25.89069799 13.80309893 6.84509957
30.36099764 13.87029889 6.9145095
34.7855973 13.85849899 6.9121394
41.86079668 17.80399855 6.92459945
19.52159863 17.63829873 6.99814946
23.82499806 17.7522986 6.87524943
28.35179775 17.58299859 6.85010949
32.91819747 17.6985987 6.86875946
37.32269721 17.69349869 6.90789951
44.4288966 21.61519832 6.9096794
22.03809826 21.53939835 6.92966939
26.52989791 21.45589845 7.03629944
30.98129759 21.49639837 6.82210948
35.4517973 21.61979828 6.90193953
39.99169699 21.54459828 6.90942946
22.77899835 26.74979799 10.42399919
27.2935979 26.70759793 10.48559913
31.71839756 26.76729788 10.42909923
36.25529737 26.70649796 10.37339926
40.51219685 26.80179804 10.47769923
45.17689655 26.71209801 10.48859923
9.73201929 7.40163953 10.52999925
14.29629895 7.42561939 10.40799915
18.60149846 7.6356894 10.40359923
22.94569826 7.41020936 10.38929928
27.57929788 7.57147934 10.44579918
31.83919768 7.55831948 10.40549914
38.9816969 11.36549905 10.43049926
16.73979863 11.30209907 10.37079923
21.2043983 11.42759918 10.40839922
25.64579793 11.31859903 10.50039917
30.10089783 11.45509916 10.4306993
34.67189727 11.3346991 10.41269913
14.87399892 15.2387989 10.37469928
19.33729857 15.28919889 10.38979916
23.81539816 15.28219888 10.37859911
28.14359779 15.23719873 10.42019916
32.74299745 15.2403989 10.42639919
37.08379714 15.23629884 10.35559913
44.1415966 18.94299865 10.45469925
21.95559817 19.1747985 10.54749912
26.42239799 19.07989849 10.44079916
30.93519765 19.07199848 10.38389919
35.28309751 19.10699864 10.33429922
39.78359677 18.9895985 10.52329914
46.83969653 22.99539829 10.51259918
24.63329816 23.03079827 10.4294993
29.07169764 22.94389814 10.56719917
33.5397974 22.9900982 10.49219922
37.98859709 22.82439825 10.40909913
42.30119687 22.90199837 10.44999928
51.92399614 28.23269782 13.91749896
29.68159776 28.18269787 13.86219885
34.08199741 28.12549777 13.94969885
38.42819717 28.19079785 13.98569899
42.9511966 28.25399782 14.05969897
47.59329612 28.15729771 14.04069884
12.15179902 8.91851928 13.93819897
16.48039884 8.98244944 14.00889901
21.16919841 8.90078923 13.91919883
25.57109827 8.88395944 13.87519899
29.88019779 8.80109933 13.93799893
34.35299741 8.91775939 13.85299894
41.39999687 12.77879911 13.92339893
19.11269857 12.62139911 13.92049885
23.54619832 12.70359911 13.90759893
28.03289787 12.88439892 13.96599894
32.47749741 12.78499896 13.96499898
37.09629719 12.79519896 13.88539887
17.40379853 16.60809866 14.05489898
21.78929838 16.55149873 13.90839885
26.27399802 16.6629988 14.16419898
30.74039756 16.71049871 13.92999902
35.2680972 16.69149873 13.79489897
39.58349701 16.6401988 13.89189894
19.88929867 20.43899846 13.98839903
24.34579795 20.60479834 13.95249892
28.94919783 20.4664985 13.91099888
33.3400973 20.62309833 14.01559891
37.59929725 20.41719849 14.00469891
42.21729686 20.52989848 13.93009904
49.30809635 24.32899824 14.01969899
27.03099798 24.38849806 13.94519892
31.59589744 24.32019808 13.97559892
35.96109711 24.29469807 14.03609888
40.43159689 24.36329806 13.94299896
44.9682967 24.40599813 13.80969901
27.59689782 29.50159775 17.43059875
32.06319759 29.58149773 17.49379876
36.38989725 29.62699779 17.37939872
40.96709677 29.60779777 17.50179867
29.81739783 6.56839957 17.42209875
49.97469618 29.62779765 17.3974987
14.61399886 10.37029928 17.45569868
19.0760985 10.39709926 17.43129866
23.3518983 10.27499929 17.34129864
27.88349795 10.39189919 17.37099874
32.41719736 10.36579918 17.3470986
36.90709727 10.32219926 17.47739865
43.83059677 14.03689902 17.63539867
21.5785984 14.00849897 17.62659861
26.15619818 14.24149898 17.46889865
30.59929762 14.12259883 17.63369858
35.01919725 14.26699882 17.54899864
39.46369687 14.10479879 17.5001986
19.79489844 17.93399861 17.48069859
24.34069802 18.10779861 17.53089866
28.59159783 18.00909854 17.43039872
33.1201974 17.97049853 17.4448987
37.59609706 18.04149862 17.64449856
42.05049691 18.00189873 17.40509875
49.24239639 21.98859829 17.55209876
26.90789782 21.95929826 17.5432987
31.23659767 21.83389833 17.47699858
35.80739716 21.86019825 17.52799858
40.31289705 21.89529839 17.43419874
44.70509661 21.94249836 17.46439871
25.06589818 25.67559812 17.56719864
29.40769764 25.79169798 17.39199859
33.85939736 25.71609806 17.37339873
38.20229706 25.69829794 17.51739864
42.7859968 25.70959814 17.47489864
47.29399639 25.71409792 17.47839861
4.8220998 2.34573987 1.78749989
9.2883194 2.41365992 1.79554992
13.75729903 2.36893985 1.72324981
18.20759865 2.32890993 1.68148994
22.60189833 2.37588986 1.70775997
27.14429794 2.47877983 1.71338979
7.29379944 6.23212945 1.74313978
11.87729908 6.21342945 1.78783995
16.35589865 6.18205941 1.8756198
20.84239856 6.27098961 1.75144986
25.29119816 6.30217955 1.85832985
29.77869759 6.18977954 1.82579979
10.03549941 10.09469936 1.84308995
14.44399879 9.96998927 1.75793982
19.00719856 10.14079938 1.75625995
23.44889816 10.1025993 1.78343982
27.802698 10.06579927 1.77365981
32.29339747 10.05579915 1.6770199
12.61829904 13.86019885 1.70837986
17.13239865 13.90769903 1.60633986
21.52029833 13.99679897 1.82727984
26.02749814 13.92959892 1.61958995
30.43539752 13.9166989 1.78111984
34.96919738 13.98009886 1.7784499
15.31209874 17.70529869 1.81096986
19.72769841 17.79649863 1.71593991
24.16299824 17.78879866 1.73430983
28.6151978 17.78179864 1.78582992
33.05369751 17.85639879 1.72593996
37.65269711 17.83179875 1.71129995
17.90179859 21.66829827 1.80345992
22.35609834 21.63669844 1.83292987
26.85569796 21.68899833 1.70167997
31.17649751 21.61739834 1.6077599
35.67379734 21.61329834 1.75664991
40.2913969 21.6545983 1.67481994
7.22017953 3.76980976 5.25653963
11.63999926 3.68710977 5.22308962
16.17229875 3.72379973 5.2369396
20.67749835 3.68103972 5.24086955
24.9986981 3.74883961 5.25885961
29.51679758 3.70555961 5.3244095
9.71690935 7.61769935 5.24736962
14.22439898 7.56440944 5.15225966
18.75639844 7.76816926 5.3049695
23.20609829 7.66420943 5.18703959
27.74789778 7.69362936 5.3571796
32.18869753 7.67399933 5.32023951
12.39859892 11.48749903 5.20539961
16.90749885 11.44209918 5.24622963
21.47499833 11.45959915 5.3784795
25.7553979 11.42969903 5.28874963
30.27319774 11.47369915 5.32397953
34.77779716 11.51739906 5.2679195
15.18099894 15.32039891 5.34784956
19.5895985 15.28769883 5.23093961
23.98089824 15.28419895 5.2289797
28.37559775 15.23959876 5.35418961
33.04719762 15.35639892 5.15246959
37.48919713 15.29969874 5.14979966
17.69159853 19.15749855 5.34768953
22.13949824 19.21229859 5.20543962
26.63869814 19.17699864 5.26989963
31.07309759 19.16109862 5.19179957
35.6010972 19.19619854 5.20447966
39.9343971 19.10879857 5.23802969
20.18949862 23.00209833 5.26401966
24.86789825 22.99129829 5.23888962
29.21399782 23.08479828 5.16871957
33.74899746 23.13999818 5.14690968
38.21289706 22.98619814 5.20543962
42.57939676 23.12169813 5.29265957
9.69781948 5.18727969 8.80603942
14.21639899 5.13408964 8.67628935
18.56459864 5.20483952 8.81736938
23.0807981 5.15227963 8.67035927
27.61449789 5.2326696 8.83620928
32.01219757 5.2528395 8.79453932
12.29259916 9.0034793 8.72726935
16.82099886 9.03206936 8.75076942
21.24229847 9.08868942 8.75154934
25.81209796 9.00994939 8.8217493
30.12919767 9.0041894 8.79993941
34.59159731 8.90892926 8.79447931
14.9361988 12.78619906 8.66229935
19.26259856 12.8344991 8.82590939
23.88139825 12.92219901 8.73354938
28.26779797 12.87209905 8.77136941
32.86539755 12.94179909 8.68798927
37.21229708 12.82639906 8.82017934
17.53659867 16.73889863 8.76682925
21.95599826 16.81359878 8.72315937
26.36529799 16.71439878 8.8119994
31.01909778 16.71209879 8.67622934
35.22199747 16.73879884 8.66241937
39.84399697 16.66879869 8.71678942
20.11279855 20.68619844 8.78206937
24.47509805 20.62209845 8.75902938
29.01999792 20.65029844 8.75593937
33.51259755 20.66399857 8.71552942
38.093597 20.51829851 8.66047924
42.42519666 20.55919841 8.82059941
22.77629832 24.52799825 8.68191938
27.1836979 24.45809814 8.8187393
31.72209758 24.44059801 8.85692929
36.2225973 24.40219819 8.66518932
40.49659702 24.47619809 8.7506894
45.01459659 24.46909816 8.79847937
12.23999903 6.58227957 12.25679915
16.54129881 6.60690949 12.29719899
21.0299983 6.51460955 12.30349903
25.54439809 6.58665942 12.22959906
29.96829763 6.53519939 12.36149897
34.51439739 6.6050094 12.26499909
14.75919881 10.41569924 12.27219908
19.2349986 10.35259918 12.28229914
23.6838983 10.38469926 12.20699915
28.18619795 10.38229928 12.235299
32.67149742 10.51619911 12.19959913
37.06479716 10.4217991 12.20299908
17.41939869 14.34199883 12.18419898
21.79389845 14.24949901 12.28359916
26.19119807 14.33499894 12.3111991
30.6992977 14.28979894 12.27319904
35.16579734 14.1856989 12.28009897
39.63019714 14.320499 12.15669906
20.03609831 18.12539851 12.29519906
24.37859808 18.29519857 12.34289912
28.88059797 18.20779872 12.24099914
33.35469739 18.19149865 12.3828991
37.73109698 18.08069859 12.33609899
42.24099684 18.06899872 12.36429904
22.50529837 22.07729822 12.22989911
27.04989805 22.06499832 12.21659913
31.60959748 22.01759824 12.234099
35.93389725 21.94459838 12.34599903
40.36639668 21.9577982 12.291199
44.9027966 21.99219832 12.22619911
25.19439796 25.80319802 12.22019912
29.67339776 25.79489812 12.241399
34.30709752 25.9047981 12.28709913
38.527897 25.82889808 12.36989896
42.92699674 25.92609792 12.22719907
47.55129626 25.82769797 12.35049896
14.50259896 8.00333942 15.87369882
19.03229865 8.13899939 15.70139886
23.45759835 8.02171945 15.71709884
27.91619804 8.09653943 15.73419886
32.46009768 8.0023895 15.73999881
36.91679733 7.99335945 15.78159886
17.02089878 11.80559911 15.79739886
21.58339846 11.77769914 15.82419888
26.02469802 11.90559901 15.72559884
30.53539773 11.82649905 15.85949889
35.17099731 11.91059905 15.78439872
39.58669702 11.7892991 15.82899887
19.81919848 15.63459884 15.85479871
24.21599819 15.70229882 15.85789882
28.73819762 15.55799873 15.67549879
33.27839735 15.64359875 15.66119884
37.71079713 15.6529989 15.90159882
42.17419671 15.63719871 15.78789869
22.49949824 19.60369844 15.83739885
26.86749791 19.54399838 15.79299873
31.33629774 19.49609861 15.77899883
35.76879749 19.50409861 15.89339887
40.2907969 19.45459851 15.84299877
44.74869659 19.50069861 15.76279876
25.0062981 23.38619826 15.80749872
29.56199777 23.54199817 15.76409878
33.92309745 23.38819816 15.80839888
38.37259697 23.38169828 15.72849871
42.99569668 23.42129813 15.75529873
47.29259626 23.45249825 15.79899872
27.68889774 27.18229781 15.68729873
32.02769745 27.23539791 15.73949872
36.46109728 27.133798 15.78029885
40.91809682 27.23669797 15.84999872
45.57389639 27.29469789 15.79769871
49.97059607 27.20689785 15.82639884
17.05719874 9.4029492 19.28879848
21.47849837 9.29515923 19.3046985
25.84779801 9.34455927 19.26019857
30.54549774 9.39605923 19.22719854
34.84959738 9.35090935 19.23489861
39.37179718 9.38166939 19.36319853
19.56999851 13.21509893 19.41859845
24.09579817 13.27049897 19.30279859
28.544498 13.1541991 19.29539857
32.95289765 13.26319909 19.26999859
37.44419701 13.14819896 19.2779985
41.84239682 13.24689902 19.44909847
22.29519835 17.2036987 19.3684986
26.66429789 17.0738986 19.3168985
31.16349768 17.05949878 19.40909848
35.64359717 17.0941986 19.45639847
40.0586968 17.08459865 19.33769853
44.44169653 17.05839858 19.30679844
24.88619818 21.00559853 19.2627986
29.34459785 20.84059836 19.40789849
33.78499725 20.8375983 19.24609844
38.20899713 20.92439838 19.19039848
42.61139683 20.86769848 19.26249855
47.21699643 21.01749842 19.29469845
27.45599776 24.70979799 19.28999847
31.81989747 24.79139808 19.2524985
36.28079729 24.7281982 19.42059858
40.77379688 24.77389813 19.20659855
45.20919656 24.69789803 19.2439985
49.87889634 24.77269817 19.34429862
30.2137977 28.67229794 19.31759863
34.50899745 28.71719789 19.26079847
38.94099703 28.64589784 19.27789848
43.44909667 28.67689779 19.18959855
47.91049634 28.6638978 19.07909855
52.38939609 28.65359783 19.30459848
