POSCAR file written by OVITO Basic 3.9.2
1
73.08684496 0.8058241 1.90668382
1.27130348 73.09581775 -0.10836872
0.0949512 2.2077446 73.11757137
Ge Te 
6912 6912 
Cartesian
0.02967917 0.10167563 0.19236709
73.08127018 1.11045868 8.06987952
0.11898557 0.45594358 12.23642624
0.07189771 0.75941656 18.36687448
0.1131432 0.94120464 24.4705667
0.27037002 1.10394479 30.52994774
0.25118665 1.16999832 36.6357962
0.07763371 1.36777772 42.79490805
0.1843858 1.66086612 48.77418551
73.14262125 2.65636304 56.88371349
0.30454912 2.00978096 61.099514
0.24104969 2.19670048 67.0352154
0.30498447 6.18195644 0.06696354
73.17674908 7.1584558 8.03119183
0.17582261 6.41728996 12.3820724
0.21998934 6.73586417 18.35802209
0.16995314 6.87761118 24.51215802
0.32728696 7.15369194 30.5831507
0.32541487 7.27345411 36.58764005
0.36925845 7.48168764 42.60757128
0.35460808 7.66172958 48.91164676
0.235673 7.87162199 54.98621386
0.20690424 8.01646886 61.09994851
0.2308461 8.36195043 67.1472048
0.25436734 12.23507518 0.09714107
0.27053818 12.51114606 5.98883749
0.27740254 12.65256972 12.12332287
0.44037302 12.90355199 18.2519042
0.31153704 12.93924971 24.50481086
0.41091354 13.24799805 30.52803759
0.36679374 13.40256459 36.64508878
0.49959951 13.66579715 42.6943768
0.4899912 13.76613138 48.84254209
0.48709181 14.09832296 54.9113119
0.36960715 14.08516138 61.0505188
0.35960056 14.30345566 67.19200433
0.45546309 18.37296985 0.25556021
0.52503283 18.66980493 6.23380385
0.47221074 18.77720363 12.34399465
0.4707222 18.87246465 18.3947965
0.42237169 19.00453424 24.60038406
0.36899655 19.29601458 30.55791157
0.49537532 19.54097139 36.61211381
0.5461239 19.78349428 42.71868935
0.4997032 19.80820242 48.94513934
0.42333823 20.06312485 55.05612772
0.60865276 20.24853386 60.99001487
0.54530316 20.32668398 67.12562512
0.50821876 24.50026243 0.11432306
0.44284412 24.77387876 6.17575819
0.70847576 24.81828502 12.17148227
0.54361304 25.04214185 18.38744596
0.50575928 25.15897176 24.28230727
0.57742422 25.39216797 30.55599422
0.50706706 25.66558346 36.686583
0.6541742 25.67834566 42.84123749
0.50882497 25.91525172 48.90330168
0.52842015 26.11221687 54.93723195
0.58494992 26.48772292 60.99534202
0.59556354 26.50489251 67.10396762
0.79843217 30.54373718 0.02049159
0.65941059 30.74087709 6.13439851
0.68706846 30.94807864 12.30476705
73.63820425 31.8001123 20.32320962
73.60351585 32.12992567 26.42425652
0.60390869 31.51636815 30.45930218
0.64763342 31.76346731 36.67331113
0.69754788 31.87986818 42.7498361
0.663694 32.13921435 48.78784138
0.72148683 32.21208397 54.96918306
0.65945358 32.44130464 61.05857471
0.75568726 32.6247299 67.18399759
0.74297535 36.65471164 0.02264957
0.8491824 36.77110168 6.08535657
0.66211158 37.08538984 12.21717476
0.73400921 37.26283305 18.31423106
0.84200329 37.39185012 24.51463969
0.69084738 37.741826 30.45750985
0.71887496 37.74957969 36.61345422
0.77946602 37.86121753 42.66006462
0.98330156 38.14856191 48.79094414
0.92881714 38.26940306 54.80049016
0.96811481 38.49389604 61.048918
0.97293857 38.71745118 67.07953465
0.85728546 42.66807223 0.10038367
0.90814458 43.04635548 6.05459614
0.87857556 43.19928983 12.25522852
0.85097923 43.34403937 18.35685762
0.83735163 43.44399541 24.39554289
0.8211763 43.79283057 30.5605577
73.84406467 44.59914643 38.50792509
73.87744804 44.69317052 44.61307055
73.83288418 44.98244873 50.77674937
0.89473565 44.47944515 54.97584254
0.85697086 44.63733129 61.06566313
1.01115829 44.74776719 67.12013576
1.05732549 48.83650156 -0.03214493
0.90572552 48.96781638 6.07102123
0.91016411 49.26530354 12.2923534
1.06030138 49.28797048 18.45372922
1.01466539 49.59989475 24.46879415
1.15928813 49.77816639 30.53009684
1.0949876 49.93774441 36.65283667
1.03948483 50.03528943 42.73027682
0.92453517 50.37254677 48.81950018
1.01490384 50.4622218 54.85733632
1.05058998 50.60144376 61.09961969
1.17754768 50.82757285 67.10583606
0.99204898 54.83504611 -0.03773799
1.09079262 55.04185238 6.10260038
1.13950757 55.23148283 12.28676847
1.05698556 55.49299965 18.41564838
74.06568659 56.5087763 26.36615849
1.0648513 55.82819806 30.53982591
1.16800918 55.90682938 36.64738591
1.11376006 56.15853353 42.59951271
1.06871774 56.41878912 48.75234237
1.05341503 56.64637267 54.82770166
1.29834028 56.68009581 60.88898928
1.2462665 56.92660386 67.00070365
1.14905602 60.99607404 0.00777505
1.158495 61.16733896 6.07275572
1.22671884 61.43709963 12.28188101
1.20218357 61.65490532 18.31917864
1.19306395 61.86356956 24.44038579
1.16595442 61.9955239 30.51437756
1.24418746 61.85774185 36.69822437
1.13692135 62.29615997 42.66166429
1.14394085 62.46393068 48.80660983
1.28680127 62.59923722 54.96401316
1.26692052 62.78911839 60.80174358
1.30698036 62.96146588 66.98475386
1.23931368 67.02985097 0.01756009
1.21429047 67.19080656 6.11996136
1.28802273 67.49387323 12.16275728
74.18408214 68.54577693 20.39609042
1.38179011 68.01166085 24.37505293
1.39825606 67.98813342 30.48381666
1.32621298 68.15077738 36.42464742
1.37429637 68.47487827 42.69201442
1.34671554 68.57253173 48.85915652
1.3646086 68.82452043 54.8375257
1.34835043 69.22132783 60.93941628
1.35092767 69.04195756 66.97403793
7.50152845 73.16373732 0.14693286
6.19083118 0.28798362 6.27911048
6.2795844 0.59577754 12.57035009
6.22513146 0.72880738 18.61586002
7.47315177 73.87052436 24.61171947
6.33987944 1.14540317 30.74648589
6.32702668 1.20302162 36.86523523
6.23870055 1.48818595 42.89946494
6.25048084 1.59756633 49.11010581
6.15347008 1.94732935 55.11938726
6.20699547 2.07523977 61.15818014
6.27929466 2.24735205 67.26351946
6.29374243 6.18514171 0.24544594
6.21451291 6.41305387 6.2610736
6.32286448 6.64421534 12.41058852
6.4056388 6.80655857 18.59710152
6.35732365 6.99574414 24.69032947
6.57542969 7.17863562 30.71715157
6.42507278 7.38723579 36.87833625
6.46132443 7.59684794 43.02122793
6.33531496 7.7436324 49.02922586
6.5089276 7.99890051 55.03833067
6.29667418 8.16234594 60.97514625
6.35698602 8.32829861 67.23370198
6.39328939 12.28429249 0.22793099
6.36243182 12.59951139 6.41137374
6.43475988 12.79831807 12.46757118
6.45276031 12.81702604 18.57159316
6.45389622 13.02414007 24.6429865
6.47751103 13.36881451 30.59931238
6.36593937 13.40278391 36.72689416
6.40081062 13.62504754 42.89218852
6.49321845 13.82466996 48.95669362
6.52856641 14.22936636 55.09823394
6.50455449 14.20437232 61.15759618
6.52540406 14.40911706 67.26300828
6.47319281 18.37076125 0.18286134
6.55317949 18.61867147 6.33187708
6.61015758 18.75124052 12.47299993
6.54612982 18.99873932 18.6806782
6.49990094 19.26881248 24.57159884
6.59476994 19.43364871 30.76429882
6.5037651 19.61196885 36.7950307
6.60593773 19.80369108 42.81142292
6.60009108 20.09036659 48.88541588
6.5728282 20.23323757 55.05384899
6.59983518 20.35041224 61.21818012
6.63682175 20.43349974 67.34603847
6.55191172 24.51080322 0.20937413
6.70045355 24.88008141 6.22026228
6.65403516 24.84557592 12.34136007
6.68480049 25.11945997 18.46799774
6.59117285 25.15545544 24.56780914
6.6763116 25.5192403 30.7870966
6.71041201 25.659279 36.84635284
6.76517504 25.84108877 42.92008235
6.65476985 26.07985832 48.98211517
6.5635503 26.34679184 54.98813792
6.6519766 26.45115425 61.22454883
6.65188919 26.58765855 67.18081934
6.82575456 30.698227 0.24922322
6.79857589 30.80532917 6.33849023
6.70090946 31.0969876 12.39933376
6.76622212 31.27770854 18.55496078
6.71193515 31.32851579 24.60871066
6.64980306 31.62876305 30.59570719
6.77447543 31.66106085 36.75272491
6.85357461 31.90366296 42.86404143
6.85349963 32.21901942 49.03132725
6.774389 32.3078902 55.07929725
6.79468487 32.53318802 61.18743807
6.91661561 32.68961101 67.31873056
7.05834975 38.93201848 73.19686185
6.94541205 36.97009736 6.2703619
6.87686467 37.20696797 12.41729272
6.97804006 37.30125785 18.33175234
7.05162213 37.42757039 24.57665666
6.8486599 37.64127231 30.67622699
6.82238593 37.79522387 36.81398215
6.81401818 38.00254473 42.94019566
6.99181439 38.21108328 49.02717906
7.01437202 38.41995794 55.06018214
7.0393058 38.62642984 61.18910057
6.95063819 38.76931398 67.24818715
6.98619571 42.76265408 0.22413823
6.86641942 43.00698674 6.21296746
7.0641951 43.17845359 12.38161655
6.91611382 43.25368656 18.44969285
7.00183132 43.58468614 24.71106945
7.12263873 43.7737874 30.74179057
7.01885811 43.89137281 36.86590878
6.96225015 44.02314802 42.90209091
6.99006116 44.36163538 49.03125188
7.08843947 44.41880509 55.0635149
6.94924316 44.67413795 61.18632017
7.04240719 44.77705978 67.29835127
7.18248927 49.03340939 0.25656948
6.9895729 48.98867752 6.16636303
7.12924915 49.19571127 12.43019176
7.13672404 49.35819133 18.50208291
7.02884546 49.64031252 24.62943811
7.10396237 49.8561936 30.55413458
7.22188818 49.86587478 36.77004099
7.11121246 50.10542115 42.92253392
7.11755487 50.34706596 49.00985805
7.14554542 50.58008412 55.05977893
7.32092374 50.80618279 61.20199309
7.2763724 50.88470618 67.32836824
7.0980758 54.96693627 0.19078072
7.11470543 55.07617043 6.16690626
7.18456523 55.50786869 12.23331684
7.08991238 55.6026706 18.48562271
7.23434061 55.80426239 24.47963989
7.23162794 55.91809855 30.52293512
7.37100625 55.97030632 36.85174276
7.15207235 56.33780046 42.90146807
7.06895763 56.43225799 48.87550412
7.24910583 56.59718286 54.93649089
7.14156853 56.85235727 61.12559727
7.28550732 57.10634518 67.18375118
7.25450028 61.02179627 0.15390593
7.27709953 61.2679339 6.31686853
7.35283208 61.5155629 12.33351812
7.2253334 61.74219998 18.54270275
7.27731635 61.75466818 24.5887814
7.40136585 61.91886707 30.63441467
7.36359318 62.1337691 36.76383677
7.34972109 62.39043867 42.91059393
7.27488612 62.46204513 48.9446033
7.30895029 62.84433981 55.02040754
7.36611943 62.87690811 61.06948755
7.34834894 63.0451218 67.22666787
7.33231262 67.1140634 0.21919097
7.35095136 67.32773595 6.28120974
7.39094289 67.63752339 12.25168331
7.26245415 67.78107733 18.3794812
7.45285165 67.79782272 24.4469113
7.47474384 68.14681241 30.56303382
7.36318967 68.35518715 36.71723791
7.32883985 68.46129192 42.69438664
7.35700238 68.68267948 48.78180076
7.37961642 68.8531438 54.96561755
7.37485273 69.08208155 61.06322964
7.44837215 69.24547461 67.193751
12.29077015 0.18316535 0.46807058
12.18149388 0.43208477 6.57836714
12.40808834 0.53625063 12.70737885
12.15814981 0.7612222 18.68120319
12.36292256 0.9703135 24.77697833
12.30781303 1.18732746 31.00730166
12.31094156 1.31628688 36.99921245
12.35322609 1.51329201 43.05717936
12.3092722 1.77077452 49.12244794
12.31431834 1.94454981 55.1653972
12.34131506 2.1051222 61.42797489
12.26579215 2.25694152 67.54071196
12.46664306 6.32289075 0.48644089
12.2920478 6.52445503 6.55859662
12.27586595 6.69984106 12.65560776
12.50014113 6.83326907 18.75677079
12.37507357 7.02349831 24.7503012
12.48823006 7.23451095 30.79573041
12.52072157 7.42905071 36.96893436
12.4661335 7.68215162 43.03612035
12.42177897 7.8447285 49.19190464
12.52274511 8.04037269 55.32772993
12.48763771 8.22272962 61.36629707
12.62838043 8.35483605 67.56041852
12.41804123 12.5386007 0.35013885
12.38111319 12.70731754 6.5536794
12.39011742 12.89956258 12.63349781
12.53462878 12.89188988 18.81470139
12.69898507 13.12121575 24.88946207
12.56687258 13.33374267 30.9176893
12.52588982 13.56566281 36.992714
12.58628672 13.88624295 43.0150351
12.56300712 14.01196205 49.10361969
12.55803479 14.16355873 55.33890868
12.69272895 14.3276341 61.43746099
12.738576 14.43341196 67.4589416
12.5959446 18.48973245 0.42380055
12.56594445 18.71842569 6.42679552
12.58017606 18.8973829 12.66353017
12.71181772 19.1180323 18.73809364
12.65771648 19.21261144 24.8286339
12.76224296 19.52563136 31.01093792
12.59646247 19.72704466 37.13007662
12.7583787 19.88395155 43.02655068
12.72036726 20.08477678 49.08300212
12.70069878 20.14383309 55.28192901
12.54388722 20.40437583 61.45473895
12.70479473 20.55630824 67.46577726
12.77746503 24.54377134 0.40074361
12.75659605 24.81769314 6.4235725
12.69127279 24.96357501 12.5213368
12.75106195 25.19523476 18.73010519
12.78375377 25.21804972 24.73637525
12.63761546 25.46568416 30.9414699
12.73693237 25.7144151 37.00124708
12.81722451 25.96870327 43.22302091
12.81818364 26.16761209 49.22378437
12.77094271 26.24367915 55.30718242
12.77629627 26.37539544 61.30848429
12.91511358 26.61214221 67.35918768
12.83089247 30.58956889 0.36712536
12.83965673 30.96134812 6.44035781
12.85183215 31.07046649 12.67237948
12.92515006 31.19010721 18.75865048
12.75047502 31.45117856 24.81477939
12.8961005 31.58168463 30.93406462
12.85832343 31.97074668 37.17063252
12.8070104 31.92988658 43.23002573
12.93225856 32.3151614 49.24804514
12.82254995 32.43198517 55.20016592
12.78292844 32.5660158 61.35362249
12.92281693 32.60034011 67.4254357
12.94331531 36.79441335 0.28283701
12.98802122 36.98685888 6.41438771
12.96958077 37.16063842 12.56491804
12.93491434 37.23410627 18.62861633
13.02491204 37.48529469 24.85380689
12.97991524 37.82334589 30.85546662
12.84817903 37.90212095 36.93074162
13.0704447 38.13244112 43.1201309
13.10368398 38.33182168 49.02599727
13.08007835 38.5259372 55.22490376
13.06599148 38.66924563 61.32597745
13.1519767 38.84380463 67.40823521
13.05834824 42.89883491 0.39797013
13.01106888 43.05443986 6.33890388
13.09060934 43.21072856 12.46123029
12.93428385 43.33817706 18.6266247
13.09805781 43.63288463 24.61247676
13.1998697 43.70258907 30.92182031
13.01339315 43.88155719 36.84273446
13.08079434 44.23534485 43.02044272
13.14138016 44.3334335 49.10697323
13.15834929 44.5970759 55.30268178
13.06166229 44.67402407 61.38016761
13.17119091 45.02872499 67.46795604
13.12080525 49.10558138 0.38538536
13.09266462 49.31797569 6.33855115
13.14389203 49.36484134 12.49553191
13.21207318 49.36490168 18.65459348
13.16896629 49.83089787 24.69449136
13.16909803 49.9112518 30.90476159
13.27492254 50.05863589 36.88506814
13.15173568 50.27650158 42.95015791
13.26691648 50.42115232 49.21031253
13.24613848 50.5341447 55.3137039
13.32047074 50.94940786 61.39337725
13.3239868 51.11354922 67.4205929
13.2097691 55.22876227 0.33385087
13.28081433 55.38988065 6.52559546
13.2966155 55.44301234 12.52352153
13.23545644 55.42061347 18.64918329
13.26723786 55.77520198 24.75611034
13.21849213 55.93748138 30.84598866
13.31065501 56.18254561 36.89263952
13.22042525 56.31386209 43.01585839
13.25526316 56.47149929 49.20964274
13.27123003 56.69404425 55.31604304
13.30104614 56.92686804 61.26228794
13.42361818 57.17837896 67.34506072
13.27055529 61.30096481 0.37693189
13.31550943 61.2702419 6.43986834
13.30373558 61.49363527 12.41694168
13.40870183 61.65292798 18.70344396
13.42728512 61.77940796 24.62009001
13.5845382 61.98590165 30.89630649
13.52112644 62.27483745 36.95886627
13.39785292 62.5336045 42.88964052
13.34796302 62.56996903 48.86257248
13.43775069 62.68901319 55.09710469
13.46478916 63.05486114 61.22784186
13.52078176 63.15170941 67.32983463
13.39282071 67.2610023 0.43629886
13.48287252 67.34344067 6.48371338
13.50124516 67.55872607 12.50206908
13.43408259 67.89715125 18.68240906
13.46724186 67.97635366 24.72114697
13.48106502 68.22611337 30.74774548
13.48906497 68.40573973 36.92223864
13.57178758 68.57113805 43.04586271
13.5504363 68.66260637 49.01692906
13.4729951 68.91475829 55.08057085
13.46582314 69.04092823 61.25178643
13.50887131 69.193882 67.44332891
18.38338826 0.28922577 0.67347435
18.36953309 0.58724198 6.83181644
18.40725537 0.68983884 12.83405521
18.3498942 0.83843672 18.93559552
19.78034347 74.00668137 24.83293018
18.44922029 1.21619461 31.11471862
18.52792752 1.47204495 37.19071366
18.48796748 1.64540125 43.28189225
18.43669585 1.82998459 49.51588937
18.54222963 2.08372949 55.39875966
18.40909831 2.31742384 61.48052331
18.47981588 2.40110181 67.71402329
18.39967169 6.4485454 0.63635373
18.33660095 6.57456203 6.76092971
18.54638076 6.82705352 12.80971879
18.57382251 6.8794168 18.85120291
18.55186832 7.1094456 24.92253598
18.59399732 7.27208558 31.17380201
18.68376323 7.52827678 37.07628428
18.62247304 7.74666845 43.2844183
18.50331021 7.95268867 49.44704391
18.57252008 8.20127084 55.46460722
18.6279068 8.28213473 61.44821755
18.57068402 8.39576849 67.65796342
18.58429454 12.49121333 0.65287963
18.48476808 12.8175246 6.61219067
18.46832349 12.77572853 12.77845137
18.65949869 13.11672935 18.90844666
18.66256105 13.17072078 24.99743521
18.71468881 13.3086606 31.04374609
18.62949704 13.52738761 37.10363918
18.6505595 13.86965478 43.1819522
18.60005994 14.03137343 49.30430278
18.59254778 14.20799326 55.31945645
18.74804622 14.36229479 61.57470652
18.65287344 14.53207232 67.6987404
18.79532395 18.59024298 0.63902223
18.73763056 18.64534708 6.65255734
18.74721298 18.72904325 12.73195413
18.75162108 19.02284808 18.85566999
18.65865711 19.24276766 25.02144653
18.72325838 19.56778795 30.97374111
18.89006315 19.636857 37.09454906
18.82246725 19.90984188 43.18786717
18.7309791 20.13313119 49.35228114
18.72823282 20.29519079 55.41628632
18.87978887 20.39655682 61.49311268
18.75293272 20.580514 67.76301028
18.92549574 24.63431349 0.60617722
18.86902737 24.82729946 6.71283477
18.74075542 25.02126029 12.78445425
18.88240575 25.21016031 18.80572952
18.79448457 25.33464927 24.95834433
18.81234305 25.5353285 31.11962572
18.87067256 25.85363476 37.16743481
18.90554579 25.953955 43.25712178
18.89495268 26.14672233 49.37026122
18.89145585 26.26287313 55.39836561
18.93085363 26.58092266 61.35260714
18.97289702 26.78360089 67.56897735
19.01545248 30.70429921 0.56221018
18.85464642 30.94960844 6.55162728
18.87245347 31.17156527 12.68778908
18.76016652 31.44417316 18.84644771
18.96018131 31.43244653 25.0539694
19.08168593 31.73526309 31.2077661
18.90836111 31.87082179 37.11529163
19.00804659 32.05186479 43.18894518
18.92257254 32.37977759 49.29630635
19.0334482 32.29405004 55.32304535
19.13110472 32.53846883 61.4721109
19.02989948 32.78829435 67.55543763
19.01426756 36.77647666 0.62466905
19.08973247 37.08352877 6.6905978
18.96264166 37.33021025 12.75537825
19.13700035 37.44747485 18.77948922
19.02722134 37.70076831 24.86192583
19.04269175 37.76368063 30.92535033
19.01900409 37.98347342 37.1254499
18.96707266 38.13579316 43.2075876
19.20731264 38.317639 49.42108219
19.09704423 38.42858171 55.36373488
19.02742294 38.77301095 61.4228564
19.21157256 38.93439842 67.58898615
19.07286462 43.0549107 0.57663695
19.11956749 43.16498965 6.59449989
19.13215787 43.40106111 12.69883828
19.0069743 43.54685839 18.84491729
19.24735986 43.55376242 24.76254936
19.23320388 43.86204233 30.97335148
19.16907816 44.06449865 37.05069548
19.16380335 44.30600713 43.20220343
19.28259771 44.35473961 49.20861973
19.24225624 44.61839722 55.28746828
19.25159652 44.78263549 61.39469485
19.14444926 45.01460198 67.60024943
19.21621742 49.26078855 0.42961242
19.25953714 49.19240633 6.60956667
19.2843908 49.3779951 12.66247628
19.24752914 49.62962579 18.70669186
19.32747554 49.76121944 24.8174417
19.24395608 49.95859816 30.93058498
19.23489235 50.0750261 37.10704173
19.23552973 50.302313 43.15603853
19.34113742 50.52743323 49.2348888
19.32113197 50.78150928 55.36729904
19.37056329 50.88505954 61.48277472
19.39856316 51.02700487 67.58634061
19.30584147 55.16855921 0.49211816
19.22106939 55.32254426 6.53855896
19.32096312 55.48744566 12.63342722
19.38269997 55.68581428 18.86705476
19.38055298 55.74884097 24.85922756
19.26549306 56.07567018 30.91138737
19.45140986 56.3215062 37.09382332
19.43662885 56.50663561 43.19667822
19.33732491 56.62693936 49.26816725
19.28045821 56.87128614 55.27336483
19.36575241 57.14984575 61.38437476
19.38267969 57.1225502 67.58188466
19.45865222 61.25684545 0.54370864
19.46526009 61.33261074 6.53248169
19.43144241 61.66317889 12.73000753
19.59676389 61.83944456 18.83054276
19.72427634 61.95991509 24.93321156
19.54530904 62.24457506 31.04682018
19.4593123 62.44266539 37.02611479
19.52355324 62.60729271 43.19870803
19.45187296 62.73688965 49.19201261
19.56423119 63.0467136 55.33262015
19.47055677 63.04973009 61.43812233
19.60711045 63.21070484 67.69381515
19.51543253 67.41267364 0.47395642
19.45913017 67.42719514 6.58433201
19.630161 67.68383339 12.72557535
19.55636863 67.90585583 18.82424702
19.70932214 68.06600691 24.89553001
19.5738634 68.22821673 30.95205724
19.66835542 68.57664231 36.97190739
19.61301352 68.67464816 43.002694
19.55121087 68.800448 49.18951786
19.61775594 69.03252598 55.29813295
19.51079375 69.14392752 61.36392858
19.58209824 69.38002192 67.52238307
24.48401149 0.32508135 0.80959762
24.62755548 0.63718769 6.7844665
24.57784023 0.74716722 12.91064995
24.46432248 0.91987152 19.05936813
25.85973128 74.06453745 24.94818418
24.50526005 1.46308398 31.23864786
24.51300235 1.37952893 37.30245437
24.66900431 1.79291175 43.37615547
24.44428809 1.86212266 49.45211144
24.50554507 2.11304767 55.60396445
24.59861205 2.18605181 61.70911164
24.54168343 2.39906972 67.87231788
24.61874982 6.48984128 0.75616471
24.42088055 6.56531074 6.93074174
24.69560442 6.94278387 12.84997955
24.45045629 6.94053372 19.06842931
24.54695718 7.19997175 25.14133038
24.64820484 7.4054662 31.14260578
24.5754864 7.62395768 37.31870925
24.56653151 7.76169017 43.4111033
24.68933708 7.92771236 49.41701836
24.66019299 8.16679459 55.59779408
24.8576117 8.30180869 61.76013796
24.59947112 8.49178392 67.93116782
24.81559 12.62776686 0.73837532
24.64832041 12.65877883 6.90355861
24.75456298 12.86603177 12.89658535
24.79468684 13.10677536 18.89673587
24.63067419 13.34180512 25.10881332
24.77723358 13.43280964 31.16685326
24.65404047 13.60244724 37.29472092
24.85601428 13.86189324 43.32723279
24.87014419 14.00287311 49.44239479
24.83788857 14.29277232 55.64263735
24.86128592 14.38953881 61.77136325
24.71671824 14.6462743 67.78101815
24.86103136 18.62308579 0.85473073
24.92063043 18.67840654 6.89070176
24.91617287 18.97873413 12.82123552
24.85148153 19.1485876 18.92915394
24.72358239 19.39108512 25.14007721
24.83867591 19.58954143 31.17917261
24.89286129 19.80438604 37.23908911
24.9323671 19.84616466 43.27749539
24.90590107 20.13999471 49.45525017
24.90786972 20.32290323 55.5093623
24.85789568 20.57336409 61.69368853
24.8531895 20.7255948 67.82697733
24.88066209 24.69704742 0.69805812
24.97299165 24.89511664 6.88297316
24.97933224 25.1467035 13.01741113
24.8174702 25.28643226 19.14698109
24.9184699 25.57876207 25.16298823
24.95919719 25.6769895 31.17688831
24.88296985 25.91363349 37.09589397
24.78189081 26.06883423 43.41419891
24.9689895 26.22464896 49.59886863
25.10615271 26.51942552 55.5334076
25.16060654 26.59268538 61.71201651
25.06191269 26.74077923 67.78672269
25.21011289 33.07005831 73.70303957
24.83688962 31.00594285 6.88032351
24.94438423 31.26582364 12.90704992
24.89379421 31.29299822 18.91522511
25.04028916 31.64200686 25.10857952
24.98906251 31.76150365 31.20799164
25.08929196 32.02854686 37.33834688
25.12582099 32.09848557 43.36069789
25.08887237 32.38841512 49.39827349
25.05230995 32.62731401 55.4967566
25.16374312 32.6600463 61.54184003
25.16863136 32.89088369 67.64126958
25.15675759 36.90648969 0.64298217
25.16674559 37.21229597 6.72233334
24.99853631 37.16322108 12.99408887
25.0621012 37.58811454 18.93035127
25.21121738 37.66089367 25.15747131
25.0234188 37.8846359 31.16872899
25.23611094 38.10241472 37.35155575
25.17749316 38.23682191 43.37235054
25.15233361 38.37350959 49.40199662
25.14883358 38.67476657 55.46503305
25.29851002 38.73235313 61.52545637
25.3054173 39.0075613 67.60063896
25.19624974 42.95847218 0.59814957
25.30325137 43.21307976 6.68047308
25.18512139 43.38182967 12.86152711
25.17393115 43.63254516 18.91862365
25.27355114 43.78360597 25.05727191
25.31459499 43.93254989 31.0968963
25.12965072 44.19242673 37.26529982
25.2721632 44.33819303 43.32022514
25.2134925 44.4374421 49.41591863
25.43061939 44.8089783 55.74311641
25.3977945 44.84226642 61.6549195
25.32064796 44.97018706 67.74799026
25.30679584 49.09049659 0.66091757
25.36750246 49.08261426 6.74475753
25.35873851 49.51059604 12.86963867
25.35381219 49.74241043 18.95304506
25.41974003 49.95720603 25.0387879
25.38314759 50.02858157 31.1831033
25.32374941 50.22304682 37.22607839
25.20446928 50.37112381 43.29105502
25.38125679 50.51532382 49.57439406
25.35194533 50.77898058 55.55024896
25.47042021 50.95337975 61.6024176
25.32244925 51.05486161 67.72617016
25.41579843 55.19289717 0.79514818
25.44626281 55.39579357 6.71000911
25.41350458 55.68212042 12.87835559
25.34343815 55.84913642 18.97611058
25.45731022 55.93408628 25.05706629
25.42428471 56.10191547 31.12505364
25.44052656 56.36714525 37.16393136
25.46243882 56.35636819 43.26965942
25.52020674 56.61154625 49.35602272
25.55413864 56.78949075 55.50489508
25.530801 56.92862219 61.56231083
25.53623979 57.25476297 67.65601241
25.5312319 61.36463591 0.60421987
25.4640143 61.50325163 6.79972571
25.56067119 61.66422723 12.88083362
25.7006331 61.96340307 18.95551057
25.66781098 62.18563712 25.01123165
25.57605235 62.24098286 31.17017632
25.64174056 62.47433465 37.20530334
25.72000337 62.5647761 43.28053433
25.61032071 62.63269677 49.41962231
25.5939269 62.84466039 55.55745424
25.62512602 63.17685703 61.57204824
25.60230672 63.23890078 67.67543364
25.38049085 67.38047381 0.61645279
25.59863796 67.6656614 6.83402697
25.75367992 67.86940235 12.79458468
25.63804116 67.80649637 18.92937313
25.71574131 68.11231751 25.11171923
25.74650993 68.49799526 31.06984875
25.79399579 68.58722229 37.34748968
25.60840236 68.66433382 43.33481524
25.73356333 68.94776424 49.44758701
25.74967122 68.95946322 55.57216135
25.69132842 69.1767238 61.53168405
25.75397939 69.43879893 67.68492172
30.60335972 0.50602808 0.79877112
30.52635688 0.6651711 6.94694171
30.71454164 0.85937718 13.03204944
30.56481595 1.01540974 19.15265244
30.70536906 1.19371505 25.33738583
30.60521262 1.4939638 31.31632825
30.69263762 1.6177567 37.41239614
30.82065594 1.72264611 43.63287156
30.5073073 1.81852815 49.6273018
30.52709446 2.07175136 55.91876263
30.60413474 2.240953 61.79105939
30.60371338 2.52528022 67.90822327
30.71434977 8.82879928 73.87127448
30.82425053 6.68985559 6.88876625
30.71625307 6.79497769 13.06984795
30.60773047 7.02469591 19.15370831
30.81894945 7.3274711 25.28578807
30.73053322 7.45209505 31.43348108
30.68452154 7.65485078 37.47393675
30.72329408 7.88603286 43.50613335
30.77450724 8.06999302 49.60252157
30.76037841 8.11404253 55.820326
30.80304966 8.34458182 61.91078202
30.80973806 8.64101401 67.94234193
30.78715884 12.62592369 0.85791505
30.80057576 12.83028942 6.92960743
30.74736107 12.96353933 13.03922505
30.82706606 13.27222697 19.20356914
30.78306316 13.47243123 25.29447171
30.73924194 13.50509026 31.36747787
30.95707931 13.65914503 37.53566987
30.88249717 13.78680074 43.52003401
30.8722947 14.104032 49.68082996
30.81793891 14.37576278 55.74082542
30.94165774 14.43224466 61.65343558
30.84181953 14.7609731 67.89510795
30.93265627 18.77013359 0.90889859
30.87441949 19.06023921 6.89236196
30.86379733 19.16548611 13.00976152
30.85427008 19.18439522 19.08684297
30.80928842 19.5009444 25.28736909
31.07250544 19.61412421 31.37338334
31.01791422 19.86633878 37.54766298
30.94080086 20.05271722 43.44584462
31.00657471 20.19060677 49.49198527
31.13359698 20.47293968 55.62013403
30.94095566 20.62568892 61.83327893
31.12443544 20.82077188 67.91931622
30.97963632 24.76257506 0.82633344
31.05290989 25.05186023 6.99942969
31.04960303 25.11615365 13.08411588
31.01300081 25.30273901 19.29322499
30.94186381 25.58789564 25.22513038
31.08753286 25.6844171 31.50138527
30.9834277 25.96691274 37.44448285
30.88737635 26.17710459 43.53956195
31.05569656 26.18401984 49.76326519
31.02113361 26.57951477 55.67314962
31.19431489 26.63520709 61.81502609
31.22532106 26.88775509 67.94161987
31.23712101 30.98843132 0.78751013
31.11794671 31.09937243 7.00572654
31.10808327 31.20327746 13.18179782
31.1542564 31.44633863 19.21701908
31.04023813 31.69418996 25.21273441
31.08583365 31.74854315 31.41033461
31.21915425 31.94201864 37.57170245
31.19171187 32.17656066 43.51184703
31.18775367 32.38859283 49.6258332
31.1266715 32.60063255 55.56691625
31.08739679 32.68565957 61.86497219
31.12917846 32.93935137 67.76828851
31.17720449 37.07154001 0.85856054
31.17954991 37.15511771 6.99792068
31.25843145 37.39608094 13.02689975
31.35484573 37.57520195 19.08353461
31.3111903 37.6843213 25.21629188
31.12520677 37.88745366 31.39443649
31.2039035 38.00728256 37.47404093
31.25039555 38.17335328 43.49764534
31.40133472 38.42885462 49.56032426
31.40294983 38.62483293 55.72056782
31.33002484 38.75295466 61.73862713
31.35369508 38.97598212 67.88476212
31.30593291 43.05238421 0.77709917
31.27189635 43.24323242 6.95732848
31.28376071 43.51536148 13.06496797
31.19293436 43.70262033 19.10983148
31.34208053 43.89309932 25.27685298
31.33919718 44.06167755 31.31549726
31.24264651 44.07203146 37.49095757
31.20439074 44.38489223 43.48835391
31.43950323 44.48552828 49.5460933
31.44784691 44.84828223 55.72613348
31.46406432 44.94483216 61.86413918
31.35808399 45.08037514 67.8151736
31.46894106 49.21517545 0.9662481
31.42344123 49.47039782 7.00314577
31.51718821 49.56642611 12.9555803
31.45895817 49.73537267 19.04961334
31.41658919 49.88145564 25.23301768
31.42269351 50.1228396 31.38376114
31.53790533 50.29900339 37.34287173
31.31795977 50.6300232 43.54072815
31.49470385 50.44477678 49.58786313
31.47352404 50.73769146 55.51925039
31.45556877 51.05419549 61.76165407
31.58453678 51.0998264 67.83508506
31.47980795 55.30686955 0.80391304
31.54580814 55.51051283 6.91809886
31.45925734 55.55729809 13.06082619
31.44939439 55.84230193 19.10793567
31.55568293 56.03648572 25.13450924
31.57414238 56.20640753 31.24064131
31.59101229 56.41397805 37.32407796
31.52477267 56.68788745 43.46763628
31.6862229 56.68345073 49.51486675
31.65910958 56.80467623 55.73746873
31.59330259 57.16676452 61.74912558
31.58604407 57.23280154 67.76535308
31.61777184 61.33855509 0.91677017
31.55048606 61.60313878 7.05224989
31.67804377 61.80968205 13.10295278
31.76463963 61.98532949 19.13106713
31.62705857 62.09249995 25.13386665
31.60308729 62.33909998 31.14999162
31.72021239 62.44384712 37.22090095
31.71312905 62.5877829 43.46947219
31.6977087 62.84467536 49.52395284
31.79953863 62.99103982 55.59749562
31.6592182 63.3334386 61.73116529